DIMACS_lns/graph-1000-923.col
p edge 1000 1853
e 1 746
e 1 207
e 1 538
e 1 975
e 1 120
e 1 284
e 3 557
e 3 855
e 3 329
e 3 675
e 3 178
e 4 725
e 4 702
e 4 245
e 4 609
e 4 746
e 5 166
e 5 492
e 5 618
e 5 594
e 5 81
e 7 752
e 7 723
e 7 814
e 8 238
e 8 709
e 8 334
e 8 930
e 8 92
e 8 710
e 8 495
e 8 103
e 9 466
e 9 823
e 9 692
e 9 195
e 9 290
e 10 156
e 10 704
e 10 176
e 12 866
e 12 459
e 12 254
e 12 523
e 13 284
e 13 127
e 13 483
e 13 472
e 13 395
e 13 689
e 13 612
e 15 566
e 15 944
e 15 363
e 15 885
e 15 647
e 15 285
e 16 899
e 16 559
e 16 694
e 17 815
e 17 210
e 17 745
e 17 490
e 17 739
e 17 652
e 18 914
e 18 162
e 18 998
e 18 741
e 19 154
e 19 684
e 19 585
e 19 815
e 19 737
e 21 27
e 21 426
e 21 202
e 21 976
e 21 481
e 24 407
e 24 992
e 24 102
e 24 103
e 24 146
e 24 901
e 25 668
e 25 110
e 25 405
e 25 196
e 25 471
e 25 852
e 25 695
e 26 851
e 26 523
e 26 273
e 26 538
e 27 69
e 27 589
e 28 760
e 28 463
e 28 138
e 28 276
e 28 871
e 29 166
e 29 802
e 29 445
e 29 369
e 29 927
e 30 367
e 30 741
e 30 844
e 31 694
e 31 922
e 31 996
e 31 562
e 31 266
e 31 366
e 31 701
e 31 743
e 32 70
e 32 477
e 32 985
e 32 36
e 32 88
e 33 634
e 33 883
e 33 917
e 34 187
e 34 790
e 34 57
e 35 828
e 35 125
e 35 760
e 35 784
e 36 526
e 36 197
e 36 338
e 36 283
e 36 153
e 36 373
e 36 270
e 37 337
e 37 551
e 37 867
e 37 668
e 37 221
e 37 902
e 37 176
e 38 624
e 38 578
e 38 99
e 38 126
e 38 259
e 39 802
e 39 65
e 39 492
e 39 389
e 39 912
e 40 891
e 40 608
e 40 822
e 40 466
e 40 516
e 43 132
e 43 702
e 43 315
e 43 549
e 43 916
e 45 932
e 45 840
e 45 566
e 45 528
e 45 589
e 47 911
e 47 701
e 47 764
e 47 538
e 47 294
e 48 132
e 48 613
e 48 892
e 48 619
e 48 788
e 49 905
e 49 521
e 49 224
e 49 872
e 49 288
e 51 549
e 51 984
e 51 225
e 51 970
e 51 884
e 51 387
e 52 327
e 52 544
e 52 582
e 52 262
e 53 985
e 53 889
e 53 807
e 53 890
e 53 463
e 54 227
e 54 384
e 54 703
e 54 723
e 54 808
e 54 817
e 54 419
e 54 182
e 54 853
e 56 391
e 56 451
e 56 199
e 57 842
e 57 786
e 57 255
e 58 256
e 58 732
e 58 97
e 58 122
e 58 703
e 58 745
e 59 762
e 59 369
e 59 684
e 60 964
e 60 859
e 60 104
e 61 63
e 61 491
e 61 514
e 61 475
e 62 593
e 62 899
e 62 406
e 62 572
e 63 154
e 63 659
e 63 272
e 64 833
e 64 690
e 64 1000
e 64 200
e 64 685
e 64 305
e 64 307
e 64 616
e 65 917
e 65 463
e 65 707
e 65 599
e 66 917
e 66 783
e 66 379
e 66 895
e 67 296
e 67 729
e 67 510
e 68 706
e 68 107
e 68 379
e 69 623
e 69 744
e 69 769
e 69 214
e 69 709
e 69 862
e 70 272
e 70 287
e 71 308
e 71 610
e 71 570
e 71 662
e 72 641
e 72 337
e 72 387
e 72 425
e 72 159
e 73 933
e 73 644
e 73 989
e 74 206
e 74 329
e 74 305
e 74 775
e 74 208
e 74 812
e 76 939
e 76 810
e 76 794
e 76 393
e 76 432
e 76 985
e 76 709
e 76 105
e 76 676
e 77 160
e 77 586
e 77 855
e 78 460
e 78 120
e 78 687
e 78 949
e 79 429
e 79 310
e 79 199
e 81 354
e 81 818
e 81 363
e 82 677
e 82 527
e 82 720
e 82 801
e 84 252
e 84 633
e 84 817
e 84 593
e 85 625
e 85 852
e 85 184
e 88 756
e 88 412
e 88 876
e 88 614
e 88 635
e 89 299
e 89 366
e 89 504
e 90 259
e 90 599
e 90 860
e 90 781
e 90 331
e 90 856
e 91 639
e 91 531
e 91 203
e 91 561
e 91 424
e 91 385
e 92 210
e 92 195
e 92 157
e 92 944
e 92 963
e 93 306
e 93 659
e 93 840
e 94 949
e 94 400
e 94 248
e 94 501
e 94 783
e 95 327
e 95 402
e 95 227
e 97 872
e 97 954
e 97 124
e 98 474
e 98 308
e 98 943
e 99 687
e 99 774
e 99 364
e 99 127
e 100 860
e 100 800
e 100 209
e 101 992
e 101 135
e 101 737
e 102 611
e 102 793
e 102 863
e 102 861
e 103 730
e 103 963
e 103 138
e 103 340
e 103 366
e 104 779
e 104 826
e 104 250
e 105 386
e 105 189
e 105 662
e 105 836
e 105 231
e 105 150
e 106 907
e 106 681
e 106 662
e 106 510
e 106 111
e 106 971
e 106 814
e 106 299
e 106 385
e 107 976
e 107 337
e 107 514
e 107 495
e 110 868
e 110 515
e 110 982
e 110 911
e 110 924
e 110 378
e 111 912
e 111 143
e 111 643
e 111 503
e 111 186
e 111 672
e 112 335
e 112 388
e 112 652
e 112 400
e 113 276
e 113 529
e 113 763
e 116 962
e 116 623
e 116 155
e 116 423
e 116 222
e 116 143
e 116 817
e 116 708
e 117 573
e 117 327
e 117 645
e 117 185
e 118 598
e 118 428
e 118 466
e 118 762
e 118 624
e 118 195
e 120 829
e 120 123
e 122 183
e 122 907
e 122 125
e 123 526
e 123 768
e 124 754
e 124 994
e 125 802
e 126 845
e 126 179
e 127 504
e 127 611
e 127 328
e 127 1000
e 128 879
e 128 560
e 128 222
e 128 992
e 129 793
e 129 814
e 129 936
e 130 734
e 130 913
e 130 488
e 130 252
e 130 967
e 130 427
e 130 864
e 130 142
e 130 546
e 131 511
e 131 715
e 131 967
e 132 472
e 132 343
e 133 402
e 133 435
e 133 970
e 133 961
e 133 978
e 133 731
e 135 233
e 135 355
e 135 853
e 135 926
e 135 248
e 135 527
e 136 165
e 136 389
e 136 391
e 137 909
e 137 661
e 137 637
e 138 907
e 138 257
e 138 550
e 139 684
e 139 352
e 139 368
e 139 504
e 139 797
e 139 354
e 142 551
e 142 217
e 142 565
e 142 898
e 143 515
e 143 686
e 143 857
e 143 341
e 143 472
e 143 531
e 143 702
e 143 255
e 144 802
e 144 545
e 144 740
e 144 157
e 146 584
e 146 835
e 146 461
e 146 583
e 146 268
e 146 897
e 146 185
e 147 501
e 147 281
e 147 582
e 147 361
e 147 169
e 147 862
e 147 203
e 147 299
e 148 912
e 148 227
e 148 544
e 148 402
e 150 737
e 150 890
e 150 774
e 150 214
e 150 965
e 151 899
e 151 636
e 151 710
e 151 964
e 152 166
e 152 384
e 152 213
e 152 250
e 152 570
e 152 583
e 153 521
e 153 605
e 153 320
e 154 760
e 154 905
e 154 551
e 155 352
e 155 964
e 156 426
e 156 592
e 156 569
e 157 962
e 157 985
e 157 992
e 157 801
e 158 937
e 158 964
e 158 518
e 158 590
e 159 165
e 159 182
e 159 197
e 160 395
e 160 733
e 160 612
e 160 516
e 160 327
e 162 641
e 162 256
e 164 257
e 164 678
e 164 969
e 164 583
e 164 201
e 164 361
e 165 266
e 165 860
e 165 630
e 165 976
e 165 738
e 165 214
e 165 287
e 166 667
e 166 965
e 167 803
e 167 890
e 167 551
e 167 905
e 167 728
e 167 643
e 167 951
e 168 633
e 168 959
e 168 372
e 169 943
e 169 207
e 170 813
e 170 502
e 170 820
e 170 204
e 170 414
e 171 203
e 171 678
e 171 634
e 171 550
e 173 883
e 173 578
e 173 948
e 173 276
e 173 651
e 173 406
e 174 651
e 174 966
e 174 957
e 174 753
e 175 608
e 175 985
e 175 561
e 176 533
e 176 207
e 176 697
e 177 709
e 177 412
e 177 340
e 177 338
e 177 533
e 178 415
e 178 198
e 178 828
e 179 560
e 179 833
e 179 299
e 179 729
e 180 228
e 180 633
e 180 933
e 181 769
e 181 431
e 181 846
e 181 753
e 181 365
e 182 278
e 182 376
e 183 431
e 183 624
e 184 921
e 184 194
e 184 813
e 184 680
e 185 618
e 185 954
e 186 946
e 186 894
e 186 285
e 186 567
e 187 299
e 187 268
e 187 978
e 189 364
e 189 334
e 189 480
e 190 993
e 190 433
e 190 916
e 190 553
e 190 405
e 191 305
e 191 752
e 191 405
e 191 834
e 191 868
e 192 742
e 192 942
e 192 954
e 193 198
e 193 773
e 193 635
e 193 962
e 194 250
e 194 943
e 194 974
e 194 978
e 196 634
e 196 485
e 197 289
e 197 920
e 197 789
e 197 607
e 197 815
e 198 486
e 199 860
e 199 864
e 199 471
e 199 470
e 200 924
e 200 703
e 200 556
e 201 637
e 201 682
e 201 427
e 201 686
e 201 633
e 201 409
e 202 784
e 202 218
e 202 533
e 203 293
e 204 667
e 204 526
e 204 688
e 204 730
e 205 544
e 205 615
e 205 356
e 206 578
e 206 413
e 207 989
e 207 413
e 207 589
e 207 270
e 208 542
e 208 353
e 208 362
e 209 779
e 209 757
e 209 780
e 210 466
e 210 945
e 210 742
e 210 243
e 210 331
e 210 250
e 210 807
e 211 419
e 211 431
e 211 984
e 211 291
e 212 299
e 212 643
e 212 360
e 212 689
e 212 432
e 212 853
e 213 975
e 213 670
e 214 986
e 214 439
e 214 559
e 214 757
e 214 614
e 214 800
e 214 492
e 217 244
e 217 429
e 217 909
e 217 924
e 217 250
e 217 221
e 217 704
e 218 335
e 218 830
e 218 673
e 218 347
e 221 643
e 221 232
e 221 612
e 221 939
e 221 625
e 222 578
e 224 334
e 224 705
e 225 762
e 225 407
e 225 894
e 225 285
e 226 768
e 226 962
e 226 285
e 226 878
e 227 894
e 227 864
e 227 810
e 228 682
e 228 550
e 228 894
e 228 495
e 228 481
e 228 364
e 231 564
e 231 474
e 231 270
e 232 639
e 232 986
e 232 417
e 233 556
e 233 987
e 234 750
e 234 361
e 234 582
e 234 448
e 238 888
e 238 467
e 241 303
e 241 343
e 241 704
e 241 405
e 241 743
e 242 806
e 242 521
e 242 596
e 242 813
e 243 645
e 243 668
e 243 807
e 243 389
e 243 866
e 243 722
e 244 354
e 244 757
e 245 503
e 245 580
e 248 598
e 248 990
e 248 464
e 248 549
e 248 837
e 248 271
e 248 303
e 249 989
e 249 779
e 249 412
e 249 810
e 250 273
e 250 631
e 251 932
e 251 833
e 251 350
e 251 506
e 251 831
e 251 469
e 251 461
e 251 395
e 251 935
e 252 826
e 252 518
e 252 627
e 254 794
e 254 566
e 255 262
e 255 607
e 256 389
e 256 713
e 256 579
e 256 659
e 256 459
e 256 472
e 256 380
e 257 928
e 257 582
e 259 547
e 259 475
e 259 480
e 260 580
e 260 455
e 260 426
e 261 575
e 261 838
e 261 693
e 262 930
e 262 484
e 265 595
e 265 916
e 265 646
e 265 415
e 265 788
e 266 753
e 266 330
e 266 688
e 266 376
e 266 856
e 267 791
e 267 792
e 267 279
e 268 544
e 268 743
e 268 464
e 268 423
e 270 429
e 270 361
e 270 475
e 270 739
e 270 544
e 270 733
e 271 355
e 271 719
e 271 762
e 271 619
e 271 645
e 271 431
e 272 424
e 272 888
e 272 448
e 272 675
e 273 315
e 273 565
e 273 970
e 273 562
e 273 511
e 274 436
e 274 397
e 274 692
e 274 729
e 276 942
e 276 845
e 276 622
e 276 290
e 278 502
e 278 793
e 278 987
e 279 707
e 279 902
e 279 412
e 281 948
e 281 350
e 281 509
e 282 608
e 282 636
e 282 727
e 283 979
e 283 590
e 284 875
e 284 883
e 284 657
e 284 288
e 285 536
e 285 419
e 285 436
e 287 309
e 287 925
e 288 394
e 288 355
e 288 564
e 288 461
e 288 946
e 288 395
e 288 376
e 288 550
e 289 649
e 289 871
e 289 557
e 289 501
e 289 784
e 290 909
e 290 615
e 291 515
e 291 769
e 291 371
e 291 944
e 293 685
e 293 592
e 294 577
e 294 705
e 294 572
e 295 580
e 295 686
e 295 547
e 295 914
e 295 996
e 295 600
e 295 954
e 295 869
e 295 421
e 296 694
e 296 358
e 296 765
e 298 820
e 298 309
e 298 768
e 299 387
e 299 783
e 299 445
e 299 737
e 303 373
e 303 412
e 303 913
e 303 853
e 305 375
e 305 676
e 306 935
e 306 944
e 306 341
e 306 642
e 306 967
e 307 334
e 307 513
e 307 604
e 307 509
e 308 689
e 308 911
e 309 584
e 309 350
e 310 370
e 310 846
e 310 876
e 315 788
e 320 643
e 320 974
e 320 578
e 320 722
e 322 600
e 322 925
e 322 969
e 325 585
e 325 467
e 325 775
e 325 595
e 325 947
e 327 692
e 327 874
e 328 346
e 328 553
e 328 590
e 328 816
e 329 930
e 329 657
e 329 882
e 329 732
e 329 672
e 329 843
e 330 948
e 330 597
e 331 904
e 331 540
e 331 965
e 331 437
e 332 884
e 332 940
e 332 764
e 332 396
e 332 806
e 332 468
e 332 770
e 334 786
e 334 445
e 334 428
e 334 614
e 335 662
e 335 1000
e 337 468
e 337 514
e 337 957
e 337 580
e 337 731
e 337 781
e 338 845
e 340 803
e 341 621
e 341 547
e 341 589
e 341 565
e 343 763
e 343 510
e 343 398
e 343 602
e 345 958
e 345 372
e 345 988
e 345 803
e 345 761
e 345 904
e 345 455
e 346 978
e 346 912
e 346 375
e 346 487
e 346 680
e 346 926
e 346 686
e 347 388
e 347 800
e 350 532
e 350 953
e 350 674
e 350 926
e 352 939
e 352 971
e 353 566
e 353 786
e 354 722
e 354 487
e 354 757
e 355 706
e 355 919
e 356 813
e 356 605
e 356 549
e 358 795
e 358 765
e 358 757
e 360 546
e 360 930
e 361 523
e 362 601
e 362 721
e 362 728
e 362 960
e 362 393
e 363 695
e 363 744
e 363 673
e 363 480
e 363 702
e 364 980
e 364 924
e 364 427
e 365 400
e 365 677
e 365 385
e 365 608
e 366 644
e 366 532
e 366 466
e 367 795
e 367 902
e 367 704
e 367 898
e 367 567
e 367 470
e 368 427
e 368 874
e 368 836
e 368 378
e 369 378
e 369 859
e 369 692
e 369 388
e 369 477
e 369 802
e 370 475
e 370 990
e 371 589
e 371 931
e 371 542
e 372 685
e 372 975
e 372 590
e 372 890
e 373 746
e 373 967
e 375 726
e 375 419
e 376 766
e 376 760
e 376 779
e 379 925
e 380 611
e 380 553
e 380 936
e 384 650
e 384 599
e 384 953
e 385 625
e 385 446
e 386 617
e 386 800
e 386 550
e 386 862
e 386 426
e 387 630
e 387 899
e 387 950
e 388 570
e 388 977
e 388 446
e 389 784
e 391 633
e 391 951
e 391 996
e 393 560
e 393 551
e 394 921
e 394 719
e 396 429
e 396 793
e 396 901
e 397 1000
e 397 631
e 397 936
e 397 974
e 398 439
e 398 768
e 400 665
e 405 832
e 405 892
e 406 501
e 406 816
e 406 702
e 406 636
e 407 721
e 409 730
e 409 570
e 409 994
e 409 897
e 410 726
e 410 674
e 410 673
e 410 931
e 412 635
e 413 726
e 413 943
e 413 739
e 413 705
e 414 970
e 414 485
e 415 830
e 415 579
e 415 940
e 415 878
e 415 526
e 416 503
e 416 453
e 416 810
e 417 708
e 417 787
e 418 779
e 418 637
e 418 953
e 418 678
e 419 627
e 419 672
e 419 750
e 419 704
e 421 834
e 421 950
e 421 661
e 423 592
e 423 646
e 423 584
e 423 720
e 424 746
e 425 556
e 425 560
e 426 674
e 426 529
e 427 837
e 428 645
e 429 586
e 429 745
e 429 531
e 429 470
e 429 559
e 429 670
e 429 804
e 430 627
e 430 569
e 430 688
e 430 454
e 431 609
e 431 437
e 431 566
e 431 784
e 432 842
e 432 616
e 432 657
e 433 902
e 433 560
e 433 857
e 433 517
e 433 686
e 435 846
e 435 614
e 435 919
e 436 745
e 436 808
e 437 948
e 437 944
e 437 862
e 439 907
e 439 833
e 441 973
e 441 701
e 441 683
e 442 845
e 442 725
e 442 535
e 442 786
e 445 583
e 445 513
e 445 730
e 446 721
e 446 661
e 446 820
e 448 664
e 448 963
e 448 734
e 448 727
e 448 708
e 448 800
e 451 601
e 451 778
e 453 667
e 453 787
e 453 857
e 454 492
e 454 521
e 454 889
e 455 778
e 455 695
e 455 547
e 459 502
e 460 842
e 460 593
e 460 468
e 460 979
e 460 730
e 461 754
e 461 565
e 463 560
e 463 757
e 463 944
e 463 633
e 463 723
e 464 895
e 466 797
e 466 940
e 466 932
e 467 567
e 467 914
e 467 569
e 467 750
e 468 959
e 468 503
e 468 957
e 469 720
e 469 791
e 469 536
e 470 639
e 470 624
e 470 757
e 471 521
e 471 474
e 471 697
e 471 779
e 472 773
e 472 627
e 472 731
e 474 974
e 474 727
e 475 477
e 475 853
e 477 921
e 477 733
e 477 487
e 477 550
e 480 542
e 480 876
e 480 604
e 481 925
e 482 742
e 482 998
e 482 987
e 482 637
e 482 985
e 483 577
e 483 854
e 484 709
e 484 892
e 484 768
e 484 646
e 485 703
e 486 731
e 486 933
e 486 727
e 487 863
e 487 661
e 488 973
e 488 998
e 488 542
e 488 595
e 490 756
e 490 883
e 491 500
e 491 822
e 491 683
e 491 596
e 491 610
e 492 977
e 492 728
e 492 852
e 495 984
e 495 845
e 495 515
e 495 588
e 500 553
e 500 984
e 500 883
e 500 651
e 500 684
e 501 726
e 501 680
e 502 949
e 502 730
e 502 877
e 502 646
e 502 826
e 503 960
e 503 556
e 504 885
e 506 976
e 506 944
e 506 731
e 506 834
e 509 818
e 509 790
e 510 943
e 510 990
e 511 631
e 511 914
e 511 817
e 513 713
e 514 768
e 514 850
e 515 584
e 516 976
e 517 890
e 517 567
e 517 753
e 518 852
e 521 861
e 521 680
e 523 816
e 526 752
e 526 917
e 526 862
e 527 990
e 527 951
e 527 611
e 528 999
e 528 760
e 528 918
e 529 815
e 529 838
e 529 879
e 531 885
e 531 849
e 531 791
e 532 561
e 533 976
e 535 892
e 535 961
e 536 573
e 537 823
e 537 810
e 537 770
e 537 592
e 538 714
e 540 829
e 540 644
e 540 974
e 540 751
e 540 565
e 542 647
e 542 826
e 542 545
e 544 570
e 545 754
e 545 681
e 545 969
e 546 653
e 546 702
e 546 914
e 549 854
e 550 836
e 551 851
e 553 958
e 553 837
e 556 566
e 556 575
e 557 565
e 559 586
e 560 766
e 560 704
e 560 642
e 560 751
e 561 999
e 561 979
e 562 642
e 562 579
e 562 673
e 562 788
e 564 901
e 565 690
e 565 572
e 565 912
e 566 618
e 567 602
e 567 736
e 567 740
e 569 960
e 569 725
e 569 773
e 569 783
e 570 678
e 570 835
e 572 713
e 572 874
e 573 931
e 575 1000
e 576 721
e 576 895
e 576 789
e 577 958
e 577 618
e 578 804
e 579 850
e 579 844
e 580 714
e 582 974
e 583 964
e 584 953
e 584 618
e 584 681
e 584 925
e 585 849
e 585 808
e 585 611
e 586 662
e 588 741
e 588 869
e 588 823
e 589 615
e 590 771
e 590 607
e 590 953
e 592 931
e 592 646
e 593 608
e 594 943
e 594 714
e 594 779
e 595 728
e 595 662
e 595 899
e 596 892
e 597 614
e 597 826
e 597 742
e 598 744
e 598 675
e 598 820
e 599 792
e 599 713
e 600 805
e 600 667
e 601 840
e 602 897
e 602 834
e 604 651
e 604 913
e 605 753
e 605 964
e 605 724
e 608 719
e 609 806
e 609 864
e 609 756
e 609 828
e 610 705
e 610 789
e 611 978
e 612 795
e 613 729
e 613 804
e 615 861
e 616 980
e 616 899
e 617 913
e 617 690
e 618 789
e 619 854
e 619 805
e 621 653
e 621 922
e 622 801
e 622 677
e 622 820
e 623 770
e 624 850
e 625 853
e 625 976
e 627 770
e 630 925
e 630 918
e 630 790
e 631 931
e 631 894
e 631 793
e 631 928
e 631 815
e 633 832
e 634 969
e 635 778
e 636 943
e 639 797
e 641 994
e 643 770
e 644 971
e 644 837
e 645 830
e 646 970
e 646 899
e 647 729
e 647 973
e 647 737
e 647 650
e 647 898
e 649 920
e 649 792
e 649 982
e 650 727
e 650 759
e 650 851
e 652 684
e 653 737
e 653 949
e 657 844
e 657 771
e 659 660
e 659 845
e 660 933
e 660 871
e 660 753
e 662 948
e 662 894
e 664 723
e 664 792
e 664 984
e 665 781
e 665 674
e 668 692
e 668 879
e 668 951
e 670 687
e 670 988
e 672 763
e 674 788
e 676 909
e 677 870
e 677 813
e 678 835
e 678 932
e 678 902
e 678 901
e 680 963
e 680 940
e 681 789
e 682 980
e 682 966
e 683 922
e 683 774
e 683 830
e 684 838
e 686 730
e 686 860
e 686 859
e 687 689
e 688 978
e 688 877
e 692 947
e 692 779
e 692 804
e 693 847
e 693 937
e 694 787
e 695 875
e 695 935
e 697 871
e 697 977
e 697 738
e 701 926
e 701 801
e 701 781
e 702 727
e 704 951
e 705 709
e 706 871
e 707 899
e 708 829
e 710 805
e 713 720
e 713 760
e 714 757
e 714 740
e 714 741
e 715 834
e 715 863
e 716 732
e 716 882
e 716 994
e 720 792
e 720 814
e 720 826
e 721 738
e 721 828
e 722 958
e 724 869
e 724 851
e 724 909
e 725 942
e 726 766
e 726 950
e 729 831
e 729 872
e 731 744
e 733 949
e 733 884
e 734 792
e 736 741
e 736 828
e 739 944
e 740 919
e 740 959
e 741 761
e 744 926
e 751 834
e 753 820
e 754 800
e 756 768
e 756 1000
e 759 771
e 759 961
e 759 866
e 761 860
e 761 954
e 763 794
e 763 855
e 764 920
e 764 774
e 765 979
e 765 826
e 769 946
e 770 867
e 770 855
e 773 918
e 773 834
e 775 869
e 775 836
e 779 850
e 779 805
e 780 842
e 780 914
e 780 816
e 780 793
e 780 851
e 780 998
e 781 885
e 783 905
e 783 890
e 783 795
e 789 982
e 790 978
e 792 945
e 793 904
e 794 820
e 794 895
e 794 902
e 800 851
e 800 979
e 805 843
e 806 912
e 806 945
e 807 961
e 807 870
e 810 869
e 810 927
e 810 867
e 812 979
e 812 859
e 817 878
e 817 853
e 818 854
e 820 932
e 822 922
e 822 961
e 822 924
e 823 868
e 828 856
e 831 847
e 831 950
e 832 984
e 832 868
e 836 964
e 836 958
e 840 999
e 843 907
e 847 990
e 849 924
e 853 979
e 859 945
e 859 891
e 860 978
e 861 971
e 862 950
e 864 1000
e 867 958
e 869 986
e 869 918
e 870 998
e 872 901
e 875 976
e 877 940
e 882 884
e 882 930
e 884 945
e 885 986
e 888 920
e 889 914
e 890 928
e 891 922
e 905 943
e 909 947
e 916 986
e 917 1000
e 919 993
e 920 998
e 921 963
e 924 984
e 924 949
e 927 959
e 928 971
e 937 1000
e 959 969
e 959 978
e 966 996
e 985 990
e 988 993
